num_offers = 20;
num_halls = 10;
start=[57,34,13,19,13,15,7,21,28,11,9,19,6,20,31,29,47,4,65,30];
end=[70,37,93,56,66,93,45,54,58,78,22,48,74,72,68,99,93,87,84,57];
price=[980,379,7074,1853,1380,5456,3324,2434,2197,6624,1331,481,4458,4405,751,1804,2365,1506,1510,2548];
requirement=[406,349,610,432,302,314,298,302,868,581,340,512,346,763,723,617,469,489,356,656];
capacity=[472,443,939,628,616,701,840,533,783,944];
